(declare-fun activity (Ind) Bool)
(declare-fun activity_occurrence (Ind) Bool)
(declare-fun object_ (Ind) Bool)
(declare-fun timepoint (Real) Bool)

(declare-fun occurrence_of (Ind Ind) Bool)
(declare-fun participates_in (Ind Ind Real) Bool)
(declare-fun exists_at (Ind Real) Bool)
(declare-fun is_occurring_at (Ind Real) Bool)

(declare-fun begin_of (Ind) Real)
(declare-fun end_of (Ind) Real)